76
125
87	10
86	19
85	11
84	14
83	15
82	15
81	12
80	11
79	10
78	15
77	15
76	7
75	11
74	11
73	20
72	7
71	14
70	12
69	19
68	13
67	14
66	12
65	9
64	12
63	15
62	14
61	11
60	14
59	14
58	13
57	16
56	12
55	17
54	13
53	15
52	9
51	11
50	18
49	13
48	17
47	10
46	12
45	10
44	23
43	9
42	14
41	14
40	16
39	13
38	8
37	7
36	19
35	11
34	19
33	20
32	9
31	14
30	14
29	8
28	11
27	13
26	14
25	9
24	15
23	12
22	17
21	8
20	21
19	15
18	18
17	11
16	11
15	12
14	13
13	11
12	9
